20 965
535 8 493 8 407 9 310 10 223 16 94 22
520 7 474 7 386 7 236 10 59 16
525 7 446 7 267 7 66 9 891 11 731 18
535 8 512 8 469 7 405 15 290 26
535 8 512 8 469 7 405 15 290 26
535 8 512 8 469 7 405 15 290 26
525 7 482 7 394 7 212 9 29 11 822 15 623 21
525 7 482 7 394 7 212 9 29 11 822 15 623 21
525 7 482 7 362 7 118 9 855 11 630 18
523 7 485 7 371 7 172 12
520 7 444 7 352 7 190 9 19 11 841 15 712 23
539 7 515 7 439 11
525 7 445 7 263 7 62 9 888 11 719 18
525 7 484 7 368 7 123 9 857 11 631 18
525 7 482 7 358 7 166 12
525 7 482 7 358 7 166 12
525 7 446 7 267 7 66 9 891 11 731 18
525 7 479 7 355 7 106 9 927 13
525 7 476 7 354 7 155 9 5 11 838 15 650 20 567 28
525 7 476 7 354 7 155 9 5 11 838 15 650 20 567 28
